500
50 50
1 40 594
2 40 154
3 40 878
4 40 820
5 40 953
6 40 793
7 40 316
8 39 683
9 39 762
10 39 773
11 39 49
12 39 602
13 39 301
14 39 221
15 39 910
16 39 954
17 39 386
18 39 174
19 39 874
20 39 981
21 39 995
22 39 213
23 38 31
24 38 609
25 38 999
26 38 405
27 38 341
28 38 850
29 38 325
30 38 389
31 38 719
32 38 386
33 37 956
34 37 130
35 37 470
36 37 876
37 37 890
38 37 472
39 37 791
40 37 267
41 37 977
42 37 634
43 37 995
44 36 614
45 36 603
46 36 972
47 36 19
48 36 287
49 36 148
50 36 688
51 36 636
52 35 66
53 35 80
54 35 504
55 35 802
56 35 475
57 35 607
58 35 352
59 35 765
60 35 659
61 35 513
62 35 442
63 35 970
64 35 43
65 35 78
66 35 332
67 35 741
68 35 327
69 34 832
70 34 625
71 34 144
72 34 914
73 34 839
74 34 530
75 34 913
76 34 142
77 34 756
78 34 659
79 34 982
80 34 687
81 34 818
82 34 685
83 34 543
84 34 307
85 33 523
86 33 144
87 33 652
88 33 415
89 33 665
90 33 170
91 33 297
92 33 402
93 33 39
94 33 359
95 33 107
96 33 482
97 33 418
98 33 534
99 33 82
100 33 596
101 33 967
102 32 256
103 32 494
104 32 837
105 32 533
106 32 17
107 32 991
108 32 746
109 32 276
110 32 920
111 32 383
112 32 211
113 32 236
114 32 247
115 32 430
116 32 202
117 32 716
118 31 542
119 31 474
120 31 604
121 31 304
122 31 588
123 31 304
124 31 436
125 31 586
126 31 661
127 31 219
128 31 61
129 31 385
130 31 8
131 31 220
132 31 743
133 31 28
134 31 133
135 30 384
136 30 762
137 30 365
138 30 479
139 30 209
140 30 338
141 30 380
142 30 717
143 30 531
144 30 845
145 30 535
146 29 966
147 29 457
148 29 482
149 29 713
150 29 343
151 29 102
152 29 796
153 29 482
154 28 93
155 28 592
156 28 442
157 28 464
158 28 730
159 28 57
160 28 350
161 28 664
162 28 757
163 28 547
164 28 559
165 28 913
166 28 247
167 27 625
168 27 104
169 27 303
170 27 443
171 27 651
172 27 805
173 27 239
174 27 912
175 27 32
176 27 711
177 27 262
178 26 441
179 26 526
180 26 543
181 26 551
182 26 399
183 26 154
184 26 941
185 26 296
186 26 915
187 26 668
188 26 832
189 26 507
190 26 577
191 26 305
192 26 591
193 26 966
194 26 484
195 25 976
196 25 842
197 25 32
198 25 315
199 25 912
200 25 197
201 25 960
202 25 436
203 25 936
204 25 379
205 25 104
206 25 734
207 25 482
208 25 54
209 25 584
210 25 51
211 25 732
212 25 494
213 24 24
214 24 747
215 24 678
216 24 803
217 24 105
218 24 860
219 24 847
220 24 57
221 24 432
222 24 672
223 24 753
224 24 927
225 24 287
226 23 488
227 23 223
228 23 616
229 23 627
230 23 961
231 23 35
232 23 35
233 23 756
234 23 644
235 23 444
236 23 277
237 23 427
238 23 32
239 23 458
240 23 975
241 22 504
242 22 9
243 22 529
244 22 245
245 22 470
246 22 464
247 22 989
248 22 464
249 22 236
250 22 612
251 22 206
252 21 972
253 21 613
254 21 271
255 21 582
256 21 250
257 21 12
258 21 726
259 21 416
260 21 637
261 21 517
262 21 767
263 21 413
264 21 586
265 21 352
266 21 725
267 21 824
268 21 176
269 20 989
270 20 80
271 20 325
272 20 493
273 20 555
274 20 912
275 20 228
276 20 493
277 20 873
278 19 801
279 19 479
280 19 200
281 19 357
282 19 174
283 19 299
284 19 65
285 19 717
286 19 192
287 19 174
288 19 79
289 19 339
290 19 316
291 19 767
292 19 27
293 19 873
294 19 138
295 19 728
296 19 131
297 19 2
298 19 40
299 18 73
300 18 40
301 18 606
302 18 139
303 18 79
304 18 442
305 18 998
306 18 95
307 18 707
308 17 25
309 17 800
310 17 120
311 17 784
312 17 462
313 17 311
314 17 605
315 17 33
316 17 421
317 17 878
318 17 893
319 17 870
320 17 145
321 16 397
322 16 690
323 16 720
324 16 587
325 16 424
326 16 410
327 16 518
328 16 153
329 16 379
330 16 218
331 16 295
332 16 534
333 16 670
334 16 432
335 16 585
336 16 886
337 15 311
338 15 81
339 15 878
340 15 831
341 15 394
342 15 776
343 15 38
344 15 970
345 15 833
346 15 288
347 15 839
348 15 315
349 15 552
350 15 929
351 15 439
352 15 940
353 15 7
354 14 840
355 14 562
356 14 508
357 14 501
358 14 609
359 14 25
360 14 789
361 14 82
362 14 855
363 13 46
364 13 152
365 13 106
366 13 535
367 13 319
368 13 943
369 13 254
370 13 294
371 13 292
372 13 378
373 13 486
374 13 228
375 13 965
376 12 725
377 12 182
378 12 336
379 12 853
380 12 879
381 12 408
382 12 57
383 12 602
384 12 610
385 12 616
386 12 309
387 12 936
388 12 156
389 12 873
390 12 381
391 12 205
392 12 123
393 11 587
394 11 954
395 11 769
396 11 790
397 11 853
398 11 305
399 11 166
400 11 129
401 11 768
402 11 750
403 11 554
404 10 359
405 10 96
406 10 144
407 10 961
408 10 452
409 10 96
410 10 69
411 10 498
412 10 650
413 10 796
414 10 127
415 10 554
416 10 860
417 10 260
418 10 378
419 10 494
420 10 375
421 9 779
422 9 595
423 9 320
424 9 555
425 9 883
426 9 860
427 9 299
428 9 109
429 9 204
430 9 482
431 9 372
432 9 893
433 9 878
434 9 886
435 9 410
436 9 779
437 9 429
438 8 183
439 8 371
440 8 627
441 8 205
442 8 255
443 8 927
444 8 958
445 8 752
446 8 398
447 8 956
448 8 423
449 8 851
450 8 310
451 8 157
452 8 420
453 7 248
454 7 62
455 7 59
456 7 575
457 7 717
458 7 108
459 7 10
460 7 746
461 7 778
462 7 602
463 7 313
464 7 423
465 7 363
466 7 939
467 7 540
468 7 978
469 7 207
470 6 976
471 6 240
472 6 117
473 6 657
474 6 250
475 6 282
476 6 305
477 6 643
478 6 186
479 6 766
480 6 680
481 6 384
482 6 754
483 6 81
484 6 592
485 6 662
486 5 227
487 5 605
488 5 735
489 5 640
490 5 34
491 5 759
492 5 93
493 5 164
494 5 128
495 5 278
496 5 819
497 5 625
498 5 976
499 5 468
500 5 973
